clingo version 5.7.2
Reading from ../axioms/dec_clingo.lp ...
Solving...
Answer: 1 (Time: 0.015s)
happens(turnOnHeater(nathan,balloon),0) happens(turnOffHeater(nathan,balloon),2) holdsAt(height(balloon,0),0) holdsAt(heaterOn(balloon),1) holdsAt(height(balloon,1),1) holdsAt(height(balloon,2),2) holdsAt(heaterOn(balloon),2) holdsAt(height(balloon,1),3)
SATISFIABLE

Models       : 1
Calls        : 1
Time         : 0.015s (Solving: 0.00s 1st Model: 0.00s Unsat: 0.00s)
CPU Time     : 0.005s
